Route #1: 53 4 20 10 21 34 3 33 54 9 38 13 32 23 28
Route #2: 
Route #3: 7 37 40 16 30 2 18 22 27 39 12 14 49 41 46 19 29 6 50 45 11 51 8
Route #4: 31 35 47 42 25 26 52 43 15 48
Route #5: 17
Route #6: 44 24 36
Route #7: 1 5
cost 1734.5832697108526
